webassembly/ejemplos_dzn/13/folder13_json_65.dzn
TERM = { '.', 's(2)', 's(4)', 'in_1', 'local_0', 'in_6', 'in_2', 'in_4', 'in_3', 's(1)', 's(0)', 'in_7', 'in_5', 's(3)', 'in_0'};
null = '.';
s = 13;
n = 14;
ndeps = 5;
max_registers_sz = 4;
NR = 1;
registers = [|'local_0', 'in_5'|];
dependencies = [|'call[function_index(0)]_1', 'call[function_index(0)]_2', |'call[function_index(0)]_2', 'i32.load8_s_5', |'i32.load8_s_5', 'i32.store8_7', |'i32.store8_7', 'i32.load_10', |'i32.load_10', 'i32.store16_11'|];
GET_ENUM = { GET1, GET2, GET3, GET4, GET5};
SET_ENUM = { SET1, SET2, SET3, SET4, SET5};
TEE_ENUM = { TEE1, TEE2, TEE3, TEE4, TEE5};
N = 7;
OP = { 'call[function_index(0)]_1', 'call[function_index(0)]_2', 'i32.add_0', 'i32.load8_s_5', 'i32.store8_7', 'i32.load_10', 'i32.store16_11' };
in_ops = [2, 2, 2, 1, 2, 1, 2 ];
out_ops = [1, 1, 1, 1, 0, 1, 0 ];
in1 = ['local_0', 's(0)', 's(1)', 's(2)', 'in_3', 'in_6', 's(4)' ];
in2 = ['in_0', 'in_1', 'in_2', '.', 'in_4', '.', 'in_7' ];
in3 = ['.', '.', '.', '.', '.', '.', '.' ];
out1 = ['s(0)', 's(1)', 's(2)', 's(3)', '.', 's(4)', '.' ];
out2 = ['.', '.', '.', '.', '.', '.', '.' ];
out3 = ['.', '.', '.', '.', '.', '.', '.' ];
comm = [false, false, true, false, false, false, false ];
gas = [1, 1, 1, 1, 1, 1, 1 ];
sz = [1, 1, 1, 1, 1, 1, 1 ];
stor = [true, true, false, false, true, false, true ];
lb = [ 1, 1, 1, 1, 1, 1, 1 ];
ub = [ 13, 13, 13, 13, 13, 13, 13 ];
startstack = [ 'in_0', 'in_1', 'in_2', 'in_3', 'in_4', 'in_5', 'in_6', 'in_7', null, null, null, null, null, null ];
endstack = [ 'in_5', null, null, null, null, null, null, null, null, null, null, null, null, null ];
